(declare-fun $guarantee_all$2 () Bool)
(declare-fun $guarantee5$2 () Bool)
(declare-fun $guarantee4$2 () Bool)
(declare-fun $guarantee3$2 () Bool)
(declare-fun $guarantee2$2 () Bool)
(declare-fun $bias_max$2 () Bool)
(declare-fun $state$2 () Int)
(declare-fun $guarantee1$2 () Bool)
(declare-fun $bias$2 () Int)
(declare-fun $x$0 () Int)

(assert (ite (or (= $x$0 0) (= $x$0 1))
     (and (= $bias$2 0)
          (= $bias_max$2 false)
          (= $guarantee1$2 true)
          (= $state$2 3)
          (= $guarantee2$2 true)
          (= $guarantee3$2 true)
          (= $guarantee4$2 true)
          (= $guarantee5$2 true)
          (= $guarantee_all$2 true))
     true))
(check-sat)
